<number of tasks>
50

<cycle time>
1000

<order strength>
0.195


<task times>
1 452
2 157
3 25
4 164
5 34
6 295
7 217
8 52
9 219
10 228
11 76
12 240
13 265
14 246
15 178
16 355
17 67
18 565
19 329
20 194
21 94
22 191
23 78
24 112
25 301
26 245
27 144
28 176
29 264
30 302
31 137
32 353
33 464
34 250
35 233
36 178
37 284
38 299
39 326
40 312
41 33
42 218
43 21
44 470
45 107
46 90
47 142
48 485
49 54
50 103

<precedence relations>
1,8
1,18
2,9
2,11
3,10
3,43
4,32
5,12
6,43
6,48
7,37
8,14
9,16
10,17
11,13
11,15
11,24
11,25
12,18
13,19
14,23
15,20
16,21
17,22
18,24
18,25
18,26
18,47
19,30
20,27
21,31
22,29
23,49
24,28
24,33
24,50
25,32
27,37
28,35
29,34
30,47
31,38
32,36
34,39
35,40
36,41
37,42
38,43
38,44
39,47
40,45
41,48
42,46
43,49
44,49
44,50

<end>
